SimulationType                MonteCarlo
NumberOfCycles                1000
NumberOfInitializationCycles  0
PrintEvery                    1

Forcefield                    GenericMOFs
CutOffVDW                     12

Framework 0
FrameworkName                 nu1000_modified
UnitCells                     1 1 2

Movies yes
WriteMoviesEvery 10
ExternalTemperature 100.0

Component 0 MoleculeName              glyphosate_anion
            MoleculeDefinition        local
            StartingBead              0
            TranslationProbability    1.0
            RotationProbability       1.0
            ReinsertionProbability    1.0
            CreateNumberOfMolecules   1
